%chk=hyd.chk
%mem=6MW
%nproc=1
# rhf/6-31++g(d,p) geom=connectivity

Title Card Required

0 1
 H
 H                  1              B1

   B1             1.40000000

 1 2 1.0
 2

